p cnf 212 751
c p weight 22 -1 0
c p weight -22 1 0
c p weight 24 6.12323399573676603586882014729198302312846062338790031898128063403419218957424163818359375E-17 0
c p weight -24 1 0
c p weight 25 1 0
c p weight -25 1 0
c p weight 26 -1 0
c p weight -26 1 0
c p weight 28 -1 0
c p weight -28 1 0
c p weight 29 -1 0
c p weight -29 1 0
c p weight 31 -1 0
c p weight -31 1 0
c p weight 33 6.12323399573676603586882014729198302312846062338790031898128063403419218957424163818359375E-17 0
c p weight -33 1 0
c p weight 34 1 0
c p weight -34 1 0
c p weight 35 -1 0
c p weight -35 1 0
c p weight 37 -1 0
c p weight -37 1 0
c p weight 38 -1 0
c p weight -38 1 0
c p weight 40 -1 0
c p weight -40 1 0
c p weight 42 6.12323399573676603586882014729198302312846062338790031898128063403419218957424163818359375E-17 0
c p weight -42 1 0
c p weight 43 1 0
c p weight -43 1 0
c p weight 44 -1 0
c p weight -44 1 0
c p weight 46 -1 0
c p weight -46 1 0
c p weight 48 -1 0
c p weight -48 1 0
c p weight 50 6.12323399573676603586882014729198302312846062338790031898128063403419218957424163818359375E-17 0
c p weight -50 1 0
c p weight 51 1 0
c p weight -51 1 0
c p weight 52 -1 0
c p weight -52 1 0
c p weight 54 -1 0
c p weight -54 1 0
c p weight 55 -1 0
c p weight -55 1 0
c p weight 57 -1 0
c p weight -57 1 0
c p weight 59 6.12323399573676603586882014729198302312846062338790031898128063403419218957424163818359375E-17 0
c p weight -59 1 0
c p weight 60 1 0
c p weight -60 1 0
c p weight 61 -1 0
c p weight -61 1 0
c p weight 63 -1 0
c p weight -63 1 0
c p weight 65 -1 0
c p weight -65 1 0
c p weight 67 6.12323399573676603586882014729198302312846062338790031898128063403419218957424163818359375E-17 0
c p weight -67 1 0
c p weight 68 1 0
c p weight -68 1 0
c p weight 69 -1 0
c p weight -69 1 0
c p weight 71 -1 0
c p weight -71 1 0
c p weight 72 -1 0
c p weight -72 1 0
c p weight 74 -1 0
c p weight -74 1 0
c p weight 76 6.12323399573676603586882014729198302312846062338790031898128063403419218957424163818359375E-17 0
c p weight -76 1 0
c p weight 77 1 0
c p weight -77 1 0
c p weight 78 -1 0
c p weight -78 1 0
c p weight 80 -1 0
c p weight -80 1 0
c p weight 81 -1 0
c p weight -81 1 0
c p weight 83 -1 0
c p weight -83 1 0
c p weight 85 6.12323399573676603586882014729198302312846062338790031898128063403419218957424163818359375E-17 0
c p weight -85 1 0
c p weight 86 1 0
c p weight -86 1 0
c p weight 87 -1 0
c p weight -87 1 0
c p weight 89 -1 0
c p weight -89 1 0
c p weight 91 -1 0
c p weight -91 1 0
c p weight 93 6.12323399573676603586882014729198302312846062338790031898128063403419218957424163818359375E-17 0
c p weight -93 1 0
c p weight 94 1 0
c p weight -94 1 0
c p weight 95 -1 0
c p weight -95 1 0
c p weight 97 -1 0
c p weight -97 1 0
c p weight 98 -1 0
c p weight -98 1 0
c p weight 99 -1 0
c p weight -99 1 0
c p weight 101 -1 0
c p weight -101 1 0
c p weight 103 6.12323399573676603586882014729198302312846062338790031898128063403419218957424163818359375E-17 0
c p weight -103 1 0
c p weight 104 1 0
c p weight -104 1 0
c p weight 105 -1 0
c p weight -105 1 0
c p weight 107 -1 0
c p weight -107 1 0
c p weight 110 -1 0
c p weight -110 1 0
c p weight 111 -1 0
c p weight -111 1 0
c p weight 113 -1 0
c p weight -113 1 0
c p weight 115 6.12323399573676603586882014729198302312846062338790031898128063403419218957424163818359375E-17 0
c p weight -115 1 0
c p weight 116 1 0
c p weight -116 1 0
c p weight 117 -1 0
c p weight -117 1 0
c p weight 119 -1 0
c p weight -119 1 0
c p weight 122 -1 0
c p weight -122 1 0
c p weight 123 -1 0
c p weight -123 1 0
c p weight 125 -1 0
c p weight -125 1 0
c p weight 127 6.12323399573676603586882014729198302312846062338790031898128063403419218957424163818359375E-17 0
c p weight -127 1 0
c p weight 128 1 0
c p weight -128 1 0
c p weight 129 -1 0
c p weight -129 1 0
c p weight 131 -1 0
c p weight -131 1 0
c p weight 134 -1 0
c p weight -134 1 0
c p weight 136 -1 0
c p weight -136 1 0
c p weight 138 6.12323399573676603586882014729198302312846062338790031898128063403419218957424163818359375E-17 0
c p weight -138 1 0
c p weight 139 1 0
c p weight -139 1 0
c p weight 140 -1 0
c p weight -140 1 0
c p weight 142 -1 0
c p weight -142 1 0
c p weight 145 -1 0
c p weight -145 1 0
c p weight 146 -1 0
c p weight -146 1 0
c p weight 148 -1 0
c p weight -148 1 0
c p weight 150 6.12323399573676603586882014729198302312846062338790031898128063403419218957424163818359375E-17 0
c p weight -150 1 0
c p weight 151 1 0
c p weight -151 1 0
c p weight 152 -1 0
c p weight -152 1 0
c p weight 154 -1 0
c p weight -154 1 0
c p weight 157 -1 0
c p weight -157 1 0
c p weight 159 -1 0
c p weight -159 1 0
c p weight 161 6.12323399573676603586882014729198302312846062338790031898128063403419218957424163818359375E-17 0
c p weight -161 1 0
c p weight 162 1 0
c p weight -162 1 0
c p weight 163 -1 0
c p weight -163 1 0
c p weight 165 -1 0
c p weight -165 1 0
c p weight 168 -1 0
c p weight -168 1 0
c p weight 169 -1 0
c p weight -169 1 0
c p weight 171 -1 0
c p weight -171 1 0
c p weight 173 6.12323399573676603586882014729198302312846062338790031898128063403419218957424163818359375E-17 0
c p weight -173 1 0
c p weight 174 1 0
c p weight -174 1 0
c p weight 175 -1 0
c p weight -175 1 0
c p weight 177 -1 0
c p weight -177 1 0
c p weight 180 -1 0
c p weight -180 1 0
c p weight 181 -1 0
c p weight -181 1 0
c p weight 183 -1 0
c p weight -183 1 0
c p weight 185 6.12323399573676603586882014729198302312846062338790031898128063403419218957424163818359375E-17 0
c p weight -185 1 0
c p weight 186 1 0
c p weight -186 1 0
c p weight 187 -1 0
c p weight -187 1 0
c p weight 189 -1 0
c p weight -189 1 0
c p weight 192 -1 0
c p weight -192 1 0
c p weight 194 -1 0
c p weight -194 1 0
c p weight 196 6.12323399573676603586882014729198302312846062338790031898128063403419218957424163818359375E-17 0
c p weight -196 1 0
c p weight 197 1 0
c p weight -197 1 0
c p weight 198 -1 0
c p weight -198 1 0
c p weight 200 -1 0
c p weight -200 1 0
c p weight 203 -1 0
c p weight -203 1 0
c p weight 204 -1 0
c p weight -204 1 0
c p weight 206 -1 0
c p weight -206 1 0
c p weight 208 6.12323399573676603586882014729198302312846062338790031898128063403419218957424163818359375E-17 0
c p weight -208 1 0
c p weight 209 1 0
c p weight -209 1 0
c p weight 210 -1 0
c p weight -210 1 0
c p weight 212 -1 0
c p weight -212 1 0
-19 0
-17 0
-15 0
-13 0
-11 0
-9 0
-7 0
-5 0
-3 0
-1 0
21 1 -2 0
21 -1 2 0
-21 1 2 0
-21 -1 -2 0
-22 1 0
-22 2 0
22 -1 -2 0
23 -1 21 0
-23 1 21 0
-24 21 0
23 -24 -1 0
-23 -24 1 0
23 24 1 -21 0
-23 24 -1 -21 0
-25 21 0
23 -25 1 0
-23 -25 -1 0
23 25 -1 -21 0
-23 25 1 -21 0
-26 23 0
-26 21 0
-26 -1 0
26 -23 1 -21 0
27 23 -21 0
27 -23 21 0
-27 23 21 0
-27 -23 -21 0
-28 23 0
-28 21 0
28 -23 -21 0
29 -27 0
-29 27 0
30 3 -4 0
30 -3 4 0
-30 3 4 0
-30 -3 -4 0
-31 3 0
-31 4 0
31 -3 -4 0
32 -3 30 0
-32 3 30 0
-33 30 0
32 -33 -3 0
-32 -33 3 0
32 33 3 -30 0
-32 33 -3 -30 0
-34 30 0
32 -34 3 0
-32 -34 -3 0
32 34 -3 -30 0
-32 34 3 -30 0
-35 32 0
-35 30 0
-35 -3 0
35 -32 3 -30 0
36 32 -30 0
36 -32 30 0
-36 32 30 0
-36 -32 -30 0
-37 32 0
-37 30 0
37 -32 -30 0
38 -36 0
-38 36 0
39 5 -6 0
39 -5 6 0
-39 5 6 0
-39 -5 -6 0
-40 5 0
-40 6 0
40 -5 -6 0
41 -5 39 0
-41 5 39 0
-42 39 0
41 -42 -5 0
-41 -42 5 0
41 42 5 -39 0
-41 42 -5 -39 0
-43 39 0
41 -43 5 0
-41 -43 -5 0
41 43 -5 -39 0
-41 43 5 -39 0
-44 41 0
-44 39 0
-44 -5 0
44 -41 5 -39 0
45 41 -39 0
45 -41 39 0
-45 41 39 0
-45 -41 -39 0
-46 41 0
-46 39 0
46 -41 -39 0
47 7 -8 0
47 -7 8 0
-47 7 8 0
-47 -7 -8 0
-48 7 0
-48 8 0
48 -7 -8 0
49 -7 47 0
-49 7 47 0
-50 47 0
49 -50 -7 0
-49 -50 7 0
49 50 7 -47 0
-49 50 -7 -47 0
-51 47 0
49 -51 7 0
-49 -51 -7 0
49 51 -7 -47 0
-49 51 7 -47 0
-52 49 0
-52 47 0
-52 -7 0
52 -49 7 -47 0
53 49 -47 0
53 -49 47 0
-53 49 47 0
-53 -49 -47 0
-54 49 0
-54 47 0
54 -49 -47 0
55 -53 0
-55 53 0
56 9 -10 0
56 -9 10 0
-56 9 10 0
-56 -9 -10 0
-57 9 0
-57 10 0
57 -9 -10 0
58 -9 56 0
-58 9 56 0
-59 56 0
58 -59 -9 0
-58 -59 9 0
58 59 9 -56 0
-58 59 -9 -56 0
-60 56 0
58 -60 9 0
-58 -60 -9 0
58 60 -9 -56 0
-58 60 9 -56 0
-61 58 0
-61 56 0
-61 -9 0
61 -58 9 -56 0
62 58 -56 0
62 -58 56 0
-62 58 56 0
-62 -58 -56 0
-63 58 0
-63 56 0
63 -58 -56 0
64 11 -12 0
64 -11 12 0
-64 11 12 0
-64 -11 -12 0
-65 11 0
-65 12 0
65 -11 -12 0
66 -11 64 0
-66 11 64 0
-67 64 0
66 -67 -11 0
-66 -67 11 0
66 67 11 -64 0
-66 67 -11 -64 0
-68 64 0
66 -68 11 0
-66 -68 -11 0
66 68 -11 -64 0
-66 68 11 -64 0
-69 66 0
-69 64 0
-69 -11 0
69 -66 11 -64 0
70 66 -64 0
70 -66 64 0
-70 66 64 0
-70 -66 -64 0
-71 66 0
-71 64 0
71 -66 -64 0
72 -70 0
-72 70 0
73 13 -14 0
73 -13 14 0
-73 13 14 0
-73 -13 -14 0
-74 13 0
-74 14 0
74 -13 -14 0
75 -13 73 0
-75 13 73 0
-76 73 0
75 -76 -13 0
-75 -76 13 0
75 76 13 -73 0
-75 76 -13 -73 0
-77 73 0
75 -77 13 0
-75 -77 -13 0
75 77 -13 -73 0
-75 77 13 -73 0
-78 75 0
-78 73 0
-78 -13 0
78 -75 13 -73 0
79 75 -73 0
79 -75 73 0
-79 75 73 0
-79 -75 -73 0
-80 75 0
-80 73 0
80 -75 -73 0
81 -79 0
-81 79 0
82 15 -16 0
82 -15 16 0
-82 15 16 0
-82 -15 -16 0
-83 15 0
-83 16 0
83 -15 -16 0
84 -15 82 0
-84 15 82 0
-85 82 0
84 -85 -15 0
-84 -85 15 0
84 85 15 -82 0
-84 85 -15 -82 0
-86 82 0
84 -86 15 0
-84 -86 -15 0
84 86 -15 -82 0
-84 86 15 -82 0
-87 84 0
-87 82 0
-87 -15 0
87 -84 15 -82 0
88 84 -82 0
88 -84 82 0
-88 84 82 0
-88 -84 -82 0
-89 84 0
-89 82 0
89 -84 -82 0
90 17 -18 0
90 -17 18 0
-90 17 18 0
-90 -17 -18 0
-91 17 0
-91 18 0
91 -17 -18 0
92 -17 90 0
-92 17 90 0
-93 90 0
92 -93 -17 0
-92 -93 17 0
92 93 17 -90 0
-92 93 -17 -90 0
-94 90 0
92 -94 17 0
-92 -94 -17 0
92 94 -17 -90 0
-92 94 17 -90 0
-95 92 0
-95 90 0
-95 -17 0
95 -92 17 -90 0
96 92 -90 0
96 -92 90 0
-96 92 90 0
-96 -92 -90 0
-97 92 0
-97 90 0
97 -92 -90 0
98 -96 0
-98 96 0
99 -20 0
-99 20 0
100 19 -20 0
100 -19 20 0
-100 19 20 0
-100 -19 -20 0
-101 19 0
-101 20 0
101 -19 -20 0
102 -19 100 0
-102 19 100 0
-103 100 0
102 -103 -19 0
-102 -103 19 0
102 103 19 -100 0
-102 103 -19 -100 0
-104 100 0
102 -104 19 0
-102 -104 -19 0
102 104 -19 -100 0
-102 104 19 -100 0
-105 102 0
-105 100 0
-105 -19 0
105 -102 19 -100 0
106 102 -100 0
106 -102 100 0
-106 102 100 0
-106 -102 -100 0
-107 102 0
-107 100 0
107 -102 -100 0
108 23 -102 0
108 -23 102 0
-108 23 102 0
-108 -23 -102 0
109 27 -106 0
109 -27 106 0
-109 27 106 0
-109 -27 -106 0
-110 23 0
-110 106 0
-110 102 -27 0
-110 -102 27 0
110 -23 102 27 -106 0
110 -23 -102 -27 -106 0
111 -109 0
-111 109 0
112 23 -109 0
112 -23 109 0
-112 23 109 0
-112 -23 -109 0
-113 23 0
-113 109 0
113 -23 -109 0
114 -23 112 0
-114 23 112 0
-115 112 0
114 -115 -23 0
-114 -115 23 0
114 115 23 -112 0
-114 115 -23 -112 0
-116 112 0
114 -116 23 0
-114 -116 -23 0
114 116 -23 -112 0
-114 116 23 -112 0
-117 114 0
-117 112 0
-117 -23 0
117 -114 23 -112 0
118 114 -112 0
118 -114 112 0
-118 114 112 0
-118 -114 -112 0
-119 114 0
-119 112 0
119 -114 -112 0
120 32 -108 0
120 -32 108 0
-120 32 108 0
-120 -32 -108 0
121 36 -106 0
121 -36 106 0
-121 36 106 0
-121 -36 -106 0
-122 32 0
-122 106 0
-122 108 -36 0
-122 -108 36 0
122 -32 108 36 -106 0
122 -32 -108 -36 -106 0
123 -121 0
-123 121 0
124 32 -121 0
124 -32 121 0
-124 32 121 0
-124 -32 -121 0
-125 32 0
-125 121 0
125 -32 -121 0
126 -32 124 0
-126 32 124 0
-127 124 0
126 -127 -32 0
-126 -127 32 0
126 127 32 -124 0
-126 127 -32 -124 0
-128 124 0
126 -128 32 0
-126 -128 -32 0
126 128 -32 -124 0
-126 128 32 -124 0
-129 126 0
-129 124 0
-129 -32 0
129 -126 32 -124 0
130 126 -124 0
130 -126 124 0
-130 126 124 0
-130 -126 -124 0
-131 126 0
-131 124 0
131 -126 -124 0
132 41 -120 0
132 -41 120 0
-132 41 120 0
-132 -41 -120 0
133 45 -106 0
133 -45 106 0
-133 45 106 0
-133 -45 -106 0
-134 41 0
-134 106 0
-134 120 -45 0
-134 -120 45 0
134 -41 120 45 -106 0
134 -41 -120 -45 -106 0
135 41 -133 0
135 -41 133 0
-135 41 133 0
-135 -41 -133 0
-136 41 0
-136 133 0
136 -41 -133 0
137 -41 135 0
-137 41 135 0
-138 135 0
137 -138 -41 0
-137 -138 41 0
137 138 41 -135 0
-137 138 -41 -135 0
-139 135 0
137 -139 41 0
-137 -139 -41 0
137 139 -41 -135 0
-137 139 41 -135 0
-140 137 0
-140 135 0
-140 -41 0
140 -137 41 -135 0
141 137 -135 0
141 -137 135 0
-141 137 135 0
-141 -137 -135 0
-142 137 0
-142 135 0
142 -137 -135 0
143 49 -132 0
143 -49 132 0
-143 49 132 0
-143 -49 -132 0
144 53 -106 0
144 -53 106 0
-144 53 106 0
-144 -53 -106 0
-145 49 0
-145 106 0
-145 132 -53 0
-145 -132 53 0
145 -49 132 53 -106 0
145 -49 -132 -53 -106 0
146 -144 0
-146 144 0
147 49 -144 0
147 -49 144 0
-147 49 144 0
-147 -49 -144 0
-148 49 0
-148 144 0
148 -49 -144 0
149 -49 147 0
-149 49 147 0
-150 147 0
149 -150 -49 0
-149 -150 49 0
149 150 49 -147 0
-149 150 -49 -147 0
-151 147 0
149 -151 49 0
-149 -151 -49 0
149 151 -49 -147 0
-149 151 49 -147 0
-152 149 0
-152 147 0
-152 -49 0
152 -149 49 -147 0
153 149 -147 0
153 -149 147 0
-153 149 147 0
-153 -149 -147 0
-154 149 0
-154 147 0
154 -149 -147 0
155 58 -143 0
155 -58 143 0
-155 58 143 0
-155 -58 -143 0
156 62 -106 0
156 -62 106 0
-156 62 106 0
-156 -62 -106 0
-157 58 0
-157 106 0
-157 143 -62 0
-157 -143 62 0
157 -58 143 62 -106 0
157 -58 -143 -62 -106 0
158 58 -156 0
158 -58 156 0
-158 58 156 0
-158 -58 -156 0
-159 58 0
-159 156 0
159 -58 -156 0
160 -58 158 0
-160 58 158 0
-161 158 0
160 -161 -58 0
-160 -161 58 0
160 161 58 -158 0
-160 161 -58 -158 0
-162 158 0
160 -162 58 0
-160 -162 -58 0
160 162 -58 -158 0
-160 162 58 -158 0
-163 160 0
-163 158 0
-163 -58 0
163 -160 58 -158 0
164 160 -158 0
164 -160 158 0
-164 160 158 0
-164 -160 -158 0
-165 160 0
-165 158 0
165 -160 -158 0
166 66 -155 0
166 -66 155 0
-166 66 155 0
-166 -66 -155 0
167 70 -106 0
167 -70 106 0
-167 70 106 0
-167 -70 -106 0
-168 66 0
-168 106 0
-168 155 -70 0
-168 -155 70 0
168 -66 155 70 -106 0
168 -66 -155 -70 -106 0
169 -167 0
-169 167 0
170 66 -167 0
170 -66 167 0
-170 66 167 0
-170 -66 -167 0
-171 66 0
-171 167 0
171 -66 -167 0
172 -66 170 0
-172 66 170 0
-173 170 0
172 -173 -66 0
-172 -173 66 0
172 173 66 -170 0
-172 173 -66 -170 0
-174 170 0
172 -174 66 0
-172 -174 -66 0
172 174 -66 -170 0
-172 174 66 -170 0
-175 172 0
-175 170 0
-175 -66 0
175 -172 66 -170 0
176 172 -170 0
176 -172 170 0
-176 172 170 0
-176 -172 -170 0
-177 172 0
-177 170 0
177 -172 -170 0
178 75 -166 0
178 -75 166 0
-178 75 166 0
-178 -75 -166 0
179 79 -106 0
179 -79 106 0
-179 79 106 0
-179 -79 -106 0
-180 75 0
-180 106 0
-180 166 -79 0
-180 -166 79 0
180 -75 166 79 -106 0
180 -75 -166 -79 -106 0
181 -179 0
-181 179 0
182 75 -179 0
182 -75 179 0
-182 75 179 0
-182 -75 -179 0
-183 75 0
-183 179 0
183 -75 -179 0
184 -75 182 0
-184 75 182 0
-185 182 0
184 -185 -75 0
-184 -185 75 0
184 185 75 -182 0
-184 185 -75 -182 0
-186 182 0
184 -186 75 0
-184 -186 -75 0
184 186 -75 -182 0
-184 186 75 -182 0
-187 184 0
-187 182 0
-187 -75 0
187 -184 75 -182 0
188 184 -182 0
188 -184 182 0
-188 184 182 0
-188 -184 -182 0
-189 184 0
-189 182 0
189 -184 -182 0
190 84 -178 0
190 -84 178 0
-190 84 178 0
-190 -84 -178 0
191 88 -106 0
191 -88 106 0
-191 88 106 0
-191 -88 -106 0
-192 84 0
-192 106 0
-192 178 -88 0
-192 -178 88 0
192 -84 178 88 -106 0
192 -84 -178 -88 -106 0
193 84 -191 0
193 -84 191 0
-193 84 191 0
-193 -84 -191 0
-194 84 0
-194 191 0
194 -84 -191 0
195 -84 193 0
-195 84 193 0
-196 193 0
195 -196 -84 0
-195 -196 84 0
195 196 84 -193 0
-195 196 -84 -193 0
-197 193 0
195 -197 84 0
-195 -197 -84 0
195 197 -84 -193 0
-195 197 84 -193 0
-198 195 0
-198 193 0
-198 -84 0
198 -195 84 -193 0
199 195 -193 0
199 -195 193 0
-199 195 193 0
-199 -195 -193 0
-200 195 0
-200 193 0
200 -195 -193 0
201 92 -190 0
201 -92 190 0
-201 92 190 0
-201 -92 -190 0
202 96 -106 0
202 -96 106 0
-202 96 106 0
-202 -96 -106 0
-203 92 0
-203 106 0
-203 190 -96 0
-203 -190 96 0
203 -92 190 96 -106 0
203 -92 -190 -96 -106 0
204 -202 0
-204 202 0
205 92 -202 0
205 -92 202 0
-205 92 202 0
-205 -92 -202 0
-206 92 0
-206 202 0
206 -92 -202 0
207 -92 205 0
-207 92 205 0
-208 205 0
207 -208 -92 0
-207 -208 92 0
207 208 92 -205 0
-207 208 -92 -205 0
-209 205 0
207 -209 92 0
-207 -209 -92 0
207 209 -92 -205 0
-207 209 92 -205 0
-210 207 0
-210 205 0
-210 -92 0
210 -207 92 -205 0
211 207 -205 0
211 -207 205 0
-211 207 205 0
-211 -207 -205 0
-212 207 0
-212 205 0
212 -207 -205 0
-114 0
-126 0
-130 0
-137 0
-141 0
-149 0
-153 0
-160 0
-164 0
-172 0
-176 0
-184 0
-188 0
-195 0
-199 0
-207 0
-211 0
-201 0
-106 0
